90 117024
27 69 11 40 77 79 53 82 64 25 22 76 16 44 52 33 32 29 35 42 71 41 12 57 7 6 20 17 62 2 23 49 15 37 68 19 65 14 39 21 9 70 36 10 3 13 38 43 1 72 30 88 60 66 80 51 63 78 47 58 34 75 56 84 89 90 4 55 81 8 31 50 45 46 28 26 85 73 87 24 86 48 59 18 61 54 83 74 67 5 
